c clasp version 2.1.1
c Reading from pb_400_07.cnf
c Solving...
s UNKNOWN

c TIME LIMIT    : 1
c Models        : 0+    
c Time          : 99999.964s (Solving: 99998.19s 1st Model: 0.00s Unsat: 0.00s)
c CPU Time      : 99838.940s
c Choices       : 131109550
c Conflicts     : 104983577
c Restarts      : 31     (Average: 3386567.00 Last: 73632210)

c Variables     : 631879 (Eliminated:    4 Frozen:    0)
c Constraints   : 753344 (Binary: 58.3% Ternary: 40.5% Other:  1.2%)
c Lemmas        : 104983577 (Binary:  0.0% Ternary:  0.0% Other:100.0%)
c   Conflict    : 104983577 (Average Length: 758.0) 
c   Loop        : 0      (Average Length: 0.0) 
c   Other       : 0      (Average Length: 0.0)
c   Deleted     : 104884079
